language ESSENCE' 1.0
$ Minion SolverNodes: 3
$ Minion SolverTotalTime: 0.037016
$ Minion SolverTimeOut: 0
$ Savile Row TotalTime: 0.175
letting M be [[22, 9, 1, 3], 
[9, 1, 3, -1], 
[1, 3, -1, -1], 
[3, -1, -1, -1]]
